# Solution for model Master Problem
# Objective value = 5.4766561274211949e+02
theta[1] 0
theta[2] 0
theta[3] 0
theta[4] 0
theta[5] 0
theta[6] 0
theta[7] 0
theta[8] 0
theta[9] 0
theta[10] 0
theta[11] 0
theta[12] 0
theta[13] 0
theta[14] 0
theta[15] 0
theta[16] 0
theta[17] 0
theta[18] 0
theta[19] 0
theta[20] 0
theta[21] 0
theta[22] 0
theta[23] 0
theta[24] 0
theta[25] 0
theta[26] 3.1249999999999978e-01
theta[27] 0
theta[28] 0
theta[29] 0.671875
theta[30] 0
theta[31] 0
theta[32] 0
theta[33] 4.6875000000000444e-02
theta[34] 5.9374999999999956e-01
theta[35] 0
theta[36] 0.328125
theta[37] 0.328125
theta[38] 0
theta[39] 0
theta[40] 1.5624999999999879e-02
theta[41] 0
theta[42] 0.265625
theta[43] 0.328125
theta[44] 0
theta[45] 0
theta[46] 0
theta[47] 3.1249999999999764e-02
theta[48] 0
theta[49] 1.2500000000000044e-01
theta[50] 3.1249999999999978e-01
theta[51] 0.015625
theta[52] 0.015625
theta[53] 0
theta[54] 0
theta[55] 0
theta[56] 0
theta[57] 0.359375
theta[58] 4.6875000000000222e-02
theta[59] 0
theta[60] 0.34375
theta[61] 2.1875000000000089e-01
theta[62] 3.2812500000000011e-01
theta[63] 1.8749999999999956e-01
theta[64] 9.3750000000000444e-02
theta[65] 0.015625
theta[66] 3.4375000000000022e-01
